Minimize
  - 38 y_0 - 33 y_1 - 47 y_2 - 28 y_3 - 27 y_4 - 50 y_5 - 54 y_6 - 41 y_7
   - 24 y_8 - 28 y_9 - 35 y_10 - 47 y_11 - 28 y_12 - 47 y_13 - 37 y_14
   - 35 y_15 - 19 y_16 - 46 y_17 - 33 y_18 - 20 y_19 - 42 y_20 - 34 y_21
   - 18 y_22 - 50 y_23 - 41 y_24 - 47 y_25 - 36 y_26 - 21 y_28 - 23 y_29
   - 29 y_30 - 14 y_31 - 58 y_32 - 21 y_34 - 34 y_35 - 30 y_36 - 54 y_37
   - 29 y_38 - 11 y_39 - 45 y_40 - 29 y_41 - 40 y_42 - 28 y_43 - 56 y_44
   - 5 y_45 - 35 y_46 - 8 y_47 - 36 y_48 - 55 y_49 + 1646 Constant
Subject To
 c_0: y_35 = 1
 c_1_0: y_0 + y_1 + y_2 + y_14 + y_15 + y_17 + y_21 + y_36 + y_38 + y_40
   + y_46 >= 1
 c_1_1: y_0 + y_1 + y_8 + y_14 + y_15 + y_36 + y_38 + y_46 >= 1
 c_1_2: y_0 + y_2 + y_14 + y_17 + y_40 >= 1
 c_1_3: y_3 + y_9 + y_12 + y_29 + y_41 >= 1
 c_1_4: y_4 + y_10 + y_18 + y_26 + y_28 + y_30 + y_34 + y_43 + y_48 >= 1
 c_1_5: y_5 + y_6 + y_20 + y_37 + y_44 >= 1
 c_1_6: y_5 + y_6 + y_37 + y_44 >= 1
 c_1_7: y_7 + y_10 + y_13 + y_18 + y_26 + y_48 >= 1
 c_1_8: y_1 + y_8 + y_16 + y_19 + y_36 + y_38 >= 1
 c_1_9: y_3 + y_9 + y_12 + y_22 + y_29 + y_41 >= 1
 c_1_10: y_4 + y_7 + y_10 + y_18 + y_26 + y_30 + y_43 + y_48 >= 1
 c_1_11: y_11 + y_20 + y_23 + y_24 + y_37 + y_49 >= 1
 c_1_12: y_3 + y_9 + y_12 + y_29 + y_35 >= 1
 c_1_13: y_7 + y_13 >= 1
 c_1_14: y_0 + y_1 + y_2 + y_14 + y_15 + y_17 + y_21 + y_36 + y_38 + y_40
   + y_46 >= 1
 c_1_15: y_0 + y_1 + y_14 + y_15 + y_21 + y_35 + y_36 + y_38 + y_46 >= 1
 c_1_16: y_8 + y_16 + y_19 >= 1
 c_1_17: y_0 + y_2 + y_14 + y_17 + y_40 >= 1
 c_1_18: y_4 + y_7 + y_10 + y_18 + y_26 + y_30 + y_43 + y_48 >= 1
 c_1_19: y_8 + y_16 + y_19 >= 1
 c_1_20: y_5 + y_11 + y_20 + y_24 >= 1
 c_1_21: y_0 + y_14 + y_15 + y_21 + y_35 + y_36 + y_38 + y_42 + y_46 >= 1
 c_1_22: y_9 + y_22 + y_28 + y_29 >= 1
 c_1_23: y_11 + y_23 + y_24 + y_32 + y_49 >= 1
 c_1_24: y_11 + y_20 + y_23 + y_24 + y_42 >= 1
 c_1_25: y_25 + y_42 >= 1
 c_1_26: y_4 + y_7 + y_10 + y_18 + y_26 + y_30 + y_48 >= 1
 c_1_27: y_27 + y_33 + y_45 + y_47 >= 1
 c_1_28: y_4 + y_22 + y_28 + y_29 + y_30 + y_34 + y_41 + y_43 >= 1
 c_1_29: y_3 + y_9 + y_12 + y_22 + y_28 + y_29 + y_41 >= 1
 c_1_30: y_4 + y_10 + y_18 + y_26 + y_28 + y_30 + y_34 + y_43 + y_48 >= 1
 c_1_31: y_31 + y_34 + y_39 + y_45 + y_47 >= 1
 c_1_32: y_23 + y_32 + y_44 + y_49 >= 1
 c_1_33: y_27 + y_33 + y_45 + y_47 >= 1
 c_1_34: y_4 + y_28 + y_30 + y_31 + y_34 + y_43 >= 1
 c_1_35: y_12 + y_15 + y_21 + y_35 + y_36 + y_42 >= 1
 c_1_36: y_0 + y_1 + y_8 + y_14 + y_15 + y_21 + y_35 + y_36 + y_38 + y_46
   >= 1
 c_1_37: y_5 + y_6 + y_11 + y_37 + y_44 + y_49 >= 1
 c_1_38: y_0 + y_1 + y_8 + y_14 + y_15 + y_21 + y_36 + y_38 + y_46 >= 1
 c_1_39: y_31 + y_39 + y_45 + y_47 >= 1
 c_1_40: y_0 + y_2 + y_14 + y_17 + y_40 >= 1
 c_1_41: y_3 + y_9 + y_28 + y_29 + y_41 + y_43 >= 1
 c_1_42: y_21 + y_24 + y_25 + y_35 + y_42 >= 1
 c_1_43: y_4 + y_10 + y_18 + y_28 + y_30 + y_34 + y_41 + y_43 >= 1
 c_1_44: y_5 + y_6 + y_32 + y_37 + y_44 + y_49 >= 1
 c_1_45: y_27 + y_31 + y_33 + y_39 + y_45 + y_47 >= 1
 c_1_46: y_0 + y_1 + y_14 + y_15 + y_21 + y_36 + y_38 + y_46 >= 1
 c_1_47: y_27 + y_31 + y_33 + y_39 + y_45 + y_47 >= 1
 c_1_48: y_4 + y_7 + y_10 + y_18 + y_26 + y_30 + y_48 >= 1
 c_1_49: y_11 + y_23 + y_32 + y_37 + y_44 + y_49 >= 1
Bounds
 Constant = 1
Binaries
 y_0 y_1 y_2 y_3 y_4 y_5 y_6 y_7 y_8 y_9 y_10 y_11 y_12 y_13 y_14 y_15 y_16
 y_17 y_18 y_19 y_20 y_21 y_22 y_23 y_24 y_25 y_26 y_27 y_28 y_29 y_30 y_31
 y_32 y_33 y_34 y_35 y_36 y_37 y_38 y_39 y_40 y_41 y_42 y_43 y_44 y_45 y_46
 y_47 y_48 y_49
End
